n = 25
Q1 = [0 25 15 13 40 35 49 12 8 35 13 12 16 32 45 35 23 47 12 50 39 7 46 30 44; 0 0 10 32 19 22 37 27 42 18 24 26 11 39 38 44 47 39 41 38 8 6 34 26 39; 0 0 0 13 48 40 10 11 25 20 19 40 31 22 24 18 45 28 38 24 5 6 47 19 11; 0 0 0 0 13 40 24 50 27 45 22 37 44 26 44 18 34 40 10 17 36 42 42 36 20; 0 0 0 0 0 30 11 27 43 48 5 21 34 44 42 37 42 38 34 47 11 30 29 19 20; 0 0 0 0 0 0 5 32 45 36 43 17 35 6 29 20 38 20 23 17 25 8 14 39 35; 0 0 0 0 0 0 0 37 49 29 20 8 44 19 34 42 12 28 6 8 27 12 38 36 44; 0 0 0 0 0 0 0 0 26 32 35 17 7 7 39 35 18 22 21 5 43 5 9 26 11; 0 0 0 0 0 0 0 0 0 12 24 19 34 48 48 26 14 36 32 47 38 13 39 48 9; 0 0 0 0 0 0 0 0 0 0 39 18 15 5 12 48 43 36 21 47 44 41 22 32 22; 0 0 0 0 0 0 0 0 0 0 0 25 37 49 15 11 40 47 18 47 36 36 17 10 50; 0 0 0 0 0 0 0 0 0 0 0 0 24 30 18 8 26 41 15 11 9 22 36 7 50; 0 0 0 0 0 0 0 0 0 0 0 0 0 37 8 16 25 21 22 49 20 21 23 26 39; 0 0 0 0 0 0 0 0 0 0 0 0 0 0 8 14 36 22 33 48 14 27 36 31 30; 0 0 0 0 0 0 0 0 0 0 0 0 0 0 0 8 32 40 27 23 36 24 43 48 43; 0 0 0 0 0 0 0 0 0 0 0 0 0 0 0 0 12 38 22 42 24 28 45 36 11; 0 0 0 0 0 0 0 0 0 0 0 0 0 0 0 0 0 23 37 43 39 15 5 50 50; 0 0 0 0 0 0 0 0 0 0 0 0 0 0 0 0 0 0 14 36 41 48 48 43 20; 0 0 0 0 0 0 0 0 0 0 0 0 0 0 0 0 0 0 0 34 19 19 27 15 11; 0 0 0 0 0 0 0 0 0 0 0 0 0 0 0 0 0 0 0 0 9 43 5 49 22; 0 0 0 0 0 0 0 0 0 0 0 0 0 0 0 0 0 0 0 0 0 24 46 7 34; 0 0 0 0 0 0 0 0 0 0 0 0 0 0 0 0 0 0 0 0 0 0 23 42 43; 0 0 0 0 0 0 0 0 0 0 0 0 0 0 0 0 0 0 0 0 0 0 0 16 42; 0 0 0 0 0 0 0 0 0 0 0 0 0 0 0 0 0 0 0 0 0 0 0 0 38; 0 0 0 0 0 0 0 0 0 0 0 0 0 0 0 0 0 0 0 0 0 0 0 0 0]
Q2 = [0.0 7.0 50.0 38.0 9.0 11.0 0.0 42.0 50.0 2.0 45.0 39.0 47.0 18.0 1.0 5.0 34.0 2.0 44.0 0.0 1.0 48.0 1.0 8.0 0.0; 0.0 0.0 44.0 14.0 48.0 33.0 13.0 13.0 6.0 43.0 49.0 18.0 41.0 10.0 3.0 2.0 0.0 3.0 7.0 8.0 42.0 47.0 6.0 16.0 0.0; 0.0 0.0 0.0 46.0 0.0 10.0 50.0 44.0 0.0 49.0 47.0 10.0 13.0 31.0 46.0 48.0 4.0 9.0 7.0 29.0 49.0 48.0 3.0 39.0 41.0; 0.0 0.0 0.0 0.0 46.0 0.0 35.0 0.0 3.0 4.0 39.0 10.0 6.0 1.0 6.0 43.0 6.0 8.0 48.0 48.0 6.0 7.0 4.0 14.0 33.0; 0.0 0.0 0.0 0.0 0.0 12.0 41.0 2.0 7.0 0.0 47.0 50.0 9.0 6.0 4.0 4.0 2.0 7.0 6.0 2.0 42.0 8.0 1.0 48.0 44.0; 0.0 0.0 0.0 0.0 0.0 0.0 46.0 14.0 4.0 11.0 4.0 47.0 15.0 50.0 21.0 37.0 10.0 43.0 30.0 45.0 2.0 49.0 47.0 11.0 4.0; 0.0 0.0 0.0 0.0 0.0 0.0 0.0 2.0 0.0 10.0 41.0 47.0 4.0 42.0 8.0 8.0 45.0 21.0 46.0 43.0 15.0 38.0 9.0 2.0 0.0; 0.0 0.0 0.0 0.0 0.0 0.0 0.0 0.0 6.0 5.0 10.0 47.0 50.0 48.0 4.0 5.0 32.0 29.0 44.0 48.0 1.0 46.0 43.0 13.0 48.0; 0.0 0.0 0.0 0.0 0.0 0.0 0.0 0.0 0.0 46.0 42.0 50.0 7.0 2.0 2.0 12.0 39.0 3.0 2.0 3.0 10.0 43.0 0.0 1.0 50.0; 0.0 0.0 0.0 0.0 0.0 0.0 0.0 0.0 0.0 0.0 0.0 40.0 42.0 49.0 38.0 2.0 3.0 6.0 33.0 2.0 3.0 0.0 43.0 0.0 45.0; 0.0 0.0 0.0 0.0 0.0 0.0 0.0 0.0 0.0 0.0 0.0 6.0 12.0 0.0 35.0 46.0 4.0 0.0 45.0 0.0 8.0 11.0 47.0 50.0 0.0; 0.0 0.0 0.0 0.0 0.0 0.0 0.0 0.0 0.0 0.0 0.0 0.0 43.0 2.0 34.0 45.0 17.0 2.0 42.0 48.0 46.0 37.0 14.0 44.0 0.0; 0.0 0.0 0.0 0.0 0.0 0.0 0.0 0.0 0.0 0.0 0.0 0.0 0.0 5.0 45.0 42.0 13.0 33.0 31.0 1.0 40.0 49.0 42.0 1.0 0.0; 0.0 0.0 0.0 0.0 0.0 0.0 0.0 0.0 0.0 0.0 0.0 0.0 0.0 0.0 48.0 45.0 4.0 38.0 17.0 1.0 43.0 4.0 9.0 0.0 4.0; 0.0 0.0 0.0 0.0 0.0 0.0 0.0 0.0 0.0 0.0 0.0 0.0 0.0 0.0 0.0 46.0 14.0 0.0 9.0 41.0 1.0 46.0 5.0 1.0 0.0; 0.0 0.0 0.0 0.0 0.0 0.0 0.0 0.0 0.0 0.0 0.0 0.0 0.0 0.0 0.0 0.0 49.0 6.0 28.0 0.0 32.0 5.0 1.0 4.0 48.0; 0.0 0.0 0.0 0.0 0.0 0.0 0.0 0.0 0.0 0.0 0.0 0.0 0.0 0.0 0.0 0.0 0.0 37.0 1.0 2.0 8.0 45.0 49.0 0.0 0.0; 0.0 0.0 0.0 0.0 0.0 0.0 0.0 0.0 0.0 0.0 0.0 0.0 0.0 0.0 0.0 0.0 0.0 0.0 36.0 4.0 9.0 2.0 1.0 5.0 33.0; 0.0 0.0 0.0 0.0 0.0 0.0 0.0 0.0 0.0 0.0 0.0 0.0 0.0 0.0 0.0 0.0 0.0 0.0 0.0 5.0 50.0 50.0 8.0 35.0 45.0; 0.0 0.0 0.0 0.0 0.0 0.0 0.0 0.0 0.0 0.0 0.0 0.0 0.0 0.0 0.0 0.0 0.0 0.0 0.0 0.0 50.0 3.0 47.0 0.0 30.0; 0.0 0.0 0.0 0.0 0.0 0.0 0.0 0.0 0.0 0.0 0.0 0.0 0.0 0.0 0.0 0.0 0.0 0.0 0.0 0.0 0.0 43.0 1.0 46.0 2.0; 0.0 0.0 0.0 0.0 0.0 0.0 0.0 0.0 0.0 0.0 0.0 0.0 0.0 0.0 0.0 0.0 0.0 0.0 0.0 0.0 0.0 0.0 43.0 1.0 0.0; 0.0 0.0 0.0 0.0 0.0 0.0 0.0 0.0 0.0 0.0 0.0 0.0 0.0 0.0 0.0 0.0 0.0 0.0 0.0 0.0 0.0 0.0 0.0 50.0 8.0; 0.0 0.0 0.0 0.0 0.0 0.0 0.0 0.0 0.0 0.0 0.0 0.0 0.0 0.0 0.0 0.0 0.0 0.0 0.0 0.0 0.0 0.0 0.0 0.0 1.0; 0.0 0.0 0.0 0.0 0.0 0.0 0.0 0.0 0.0 0.0 0.0 0.0 0.0 0.0 0.0 0.0 0.0 0.0 0.0 0.0 0.0 0.0 0.0 0.0 0.0]
Q3 = [0 47 6 7 11 27 16 13 15 34 8 19 7 8 4 6 0 7 11 5 19 15 23 14 0; 0 0 15 22 5 14 5 1 13 3 0 12 1 10 6 19 4 22 7 13 20 5 3 17 0; 0 0 0 1 21 14 10 1 50 4 4 13 7 18 1 2 15 5 24 0 19 4 23 15 17; 0 0 0 0 12 29 1 14 52 22 4 3 14 64 5 8 27 0 1 6 15 10 20 10 16; 0 0 0 0 0 24 6 71 6 5 3 0 25 12 6 30 10 22 26 18 18 22 50 0 3; 0 0 0 0 0 0 13 23 14 23 16 8 21 1 3 9 14 3 8 4 58 16 8 1 5; 0 0 0 0 0 0 0 1 3 0 3 18 23 2 16 10 8 17 20 5 31 5 0 17 16; 0 0 0 0 0 0 0 0 68 36 14 0 9 15 6 27 5 16 4 2 21 0 17 31 11; 0 0 0 0 0 0 0 0 0 11 2 1 20 20 2 28 5 17 48 19 21 4 1 2 13; 0 0 0 0 0 0 0 0 0 0 31 10 6 5 19 23 13 7 15 0 12 20 4 42 1; 0 0 0 0 0 0 0 0 0 0 0 63 11 0 7 10 12 26 0 5 15 7 4 13 20; 0 0 0 0 0 0 0 0 0 0 0 0 3 73 15 10 19 5 4 6 4 13 11 1 3; 0 0 0 0 0 0 0 0 0 0 0 0 0 29 19 9 30 13 17 15 11 2 2 61 31; 0 0 0 0 0 0 0 0 0 0 0 0 0 0 2 14 13 6 6 6 14 48 6 45 63; 0 0 0 0 0 0 0 0 0 0 0 0 0 0 0 16 9 17 55 2 32 2 14 16 3; 0 0 0 0 0 0 0 0 0 0 0 0 0 0 0 0 10 27 12 0 17 53 27 9 10; 0 0 0 0 0 0 0 0 0 0 0 0 0 0 0 0 0 5 5 3 24 9 10 5 2; 0 0 0 0 0 0 0 0 0 0 0 0 0 0 0 0 0 0 14 13 9 5 13 8 13; 0 0 0 0 0 0 0 0 0 0 0 0 0 0 0 0 0 0 0 3 4 2 54 14 2; 0 0 0 0 0 0 0 0 0 0 0 0 0 0 0 0 0 0 0 0 2 10 21 9 16; 0 0 0 0 0 0 0 0 0 0 0 0 0 0 0 0 0 0 0 0 0 4 15 14 60; 0 0 0 0 0 0 0 0 0 0 0 0 0 0 0 0 0 0 0 0 0 0 6 9 19; 0 0 0 0 0 0 0 0 0 0 0 0 0 0 0 0 0 0 0 0 0 0 0 0 1; 0 0 0 0 0 0 0 0 0 0 0 0 0 0 0 0 0 0 0 0 0 0 0 0 13; 0 0 0 0 0 0 0 0 0 0 0 0 0 0 0 0 0 0 0 0 0 0 0 0 0]
